c 1 2 3 4 5 54 6 55 7 59 34 15 35 16 36 17 37 18 38 19 39 20 40 21 8 9 10 11 12 13 14 22 23 24 25 26 27 28 29 30 31 32 33 41 42 43 44 45 46 47 48 49 50 51 52 53 56 57 58 60 
p wcnf 123 60 12
12 -1 8 
12 -2 9 
12 -3 10 
12 -4 11 
12 -5 12 
12 -6 13 
12 -7 14 
12 -15 1 
12 -16 1 
12 -17 1 
12 -18 1 
12 -19 1 
12 -20 1 
12 -21 1 
12 -15 22 
12 -15 23 
12 -15 24 
12 -15 25 
12 -15 26 
12 -15 27 
12 -16 23 
12 -16 24 
12 -16 25 
12 -16 26 
12 -16 27 
12 -16 28 
12 -17 24 
12 -17 25 
12 -17 26 
12 -17 27 
12 -17 28 
12 -17 29 
12 -18 25 
12 -18 26 
12 -18 27 
12 -18 28 
12 -18 29 
12 -18 30 
12 -19 26 
12 -19 27 
12 -19 28 
12 -19 29 
12 -19 30 
12 -19 31 
12 -20 27 
12 -20 28 
12 -20 29 
12 -20 30 
12 -20 31 
12 -20 32 
12 -21 28 
12 -21 29 
12 -21 30 
12 -21 31 
12 -21 32 
12 -21 33 
12 -34 1 
12 -35 1 
12 -36 1 
12 -37 1 
12 -38 1 
12 -39 1 
12 -40 1 
12 -34 41 
12 -34 42 
12 -34 43 
12 -34 44 
12 -34 45 
12 -34 46 
12 -34 47 
12 -35 42 
12 -35 43 
12 -35 44 
12 -35 45 
12 -35 46 
12 -35 47 
12 -35 48 
12 -36 43 
12 -36 44 
12 -36 45 
12 -36 46 
12 -36 47 
12 -36 48 
12 -36 49 
12 -37 44 
12 -37 45 
12 -37 46 
12 -37 47 
12 -37 48 
12 -37 49 
12 -37 50 
12 -38 45 
12 -38 46 
12 -38 47 
12 -38 48 
12 -38 49 
12 -38 50 
12 -38 51 
12 -39 46 
12 -39 47 
12 -39 48 
12 -39 49 
12 -39 50 
12 -39 51 
12 -39 52 
12 -40 47 
12 -40 48 
12 -40 49 
12 -40 50 
12 -40 51 
12 -40 52 
12 -40 53 
12 -54 15 
12 -55 15 
12 -54 56 
12 -54 57 
12 -55 57 
12 -55 58 
12 -59 34 54 
12 -59 60 
12 15 16 17 18 19 20 21 34 35 36 37 38 39 40 
12 15 16 17 18 19 20 21 34 35 36 37 38 39 40 54 55 
6 59 
